NAME: cuum430.tsp
TYPE: TSP
COMMENT: User-generated TSP file
DIMENSION: 430
EDGE_WEIGHT_TYPE: EUC_2D
NODE_COORD_SECTION
1 242.0 320.0
2 94.0 13.0
3 344.0 170.0
4 177.0 122.0
5 295.0 403.0
6 152.0 348.0
7 56.0 356.0
8 272.0 279.0
9 350.0 360.0
10 87.0 242.0
11 231.0 97.0
12 173.0 327.0
13 86.0 283.0
14 41.0 198.0
15 7.0 189.0
16 236.0 242.0
17 404.0 357.0
18 383.0 60.0
19 395.0 33.0
20 257.0 27.0
21 183.0 142.0
22 422.0 297.0
23 49.0 28.0
24 403.0 191.0
25 281.0 362.0
26 215.0 93.0
27 27.0 382.0
28 430.0 154.0
29 233.0 332.0
30 284.0 183.0
31 191.0 353.0
32 289.0 178.0
33 248.0 250.0
34 167.0 42.0
35 66.0 257.0
36 27.0 127.0
37 311.0 192.0
38 52.0 273.0
39 126.0 280.0
40 414.0 280.0
41 65.0 355.0
42 233.0 253.0
43 322.0 268.0
44 71.0 6.0
45 195.0 428.0
46 146.0 227.0
47 112.0 296.0
48 399.0 274.0
49 281.0 342.0
50 282.0 322.0
51 427.0 20.0
52 147.0 63.0
53 269.0 419.0
54 419.0 186.0
55 332.0 300.0
56 358.0 29.0
57 265.0 72.0
58 189.0 240.0
59 66.0 352.0
60 243.0 146.0
61 58.0 160.0
62 216.0 252.0
63 80.0 369.0
64 9.0 211.0
65 278.0 130.0
66 427.0 178.0
67 368.0 194.0
68 272.0 375.0
69 135.0 158.0
70 309.0 107.0
71 264.0 426.0
72 260.0 51.0
73 224.0 124.0
74 312.0 386.0
75 38.0 397.0
76 231.0 374.0
77 118.0 301.0
78 343.0 199.0
79 407.0 55.0
80 146.0 424.0
81 92.0 308.0
82 329.0 155.0
83 73.0 317.0
84 94.0 130.0
85 153.0 266.0
86 425.0 58.0
87 271.0 200.0
88 251.0 50.0
89 224.0 69.0
90 149.0 430.0
91 244.0 65.0
92 228.0 226.0
93 38.0 201.0
94 328.0 27.0
95 411.0 188.0
96 75.0 226.0
97 411.0 307.0
98 302.0 389.0
99 337.0 305.0
100 428.0 351.0
101 42.0 2.0
102 168.0 171.0
103 77.0 8.0
104 352.0 237.0
105 255.0 49.0
106 190.0 312.0
107 80.0 326.0
108 410.0 195.0
109 396.0 129.0
110 249.0 422.0
111 219.0 359.0
112 427.0 268.0
113 426.0 299.0
114 118.0 106.0
115 155.0 232.0
116 195.0 268.0
117 112.0 194.0
118 63.0 135.0
119 311.0 191.0
120 110.0 173.0
121 121.0 101.0
122 239.0 104.0
123 367.0 213.0
124 371.0 111.0
125 201.0 429.0
126 83.0 389.0
127 232.0 309.0
128 273.0 260.0
129 329.0 359.0
130 203.0 303.0
131 161.0 333.0
132 98.0 270.0
133 107.0 421.0
134 188.0 231.0
135 400.0 13.0
136 334.0 332.0
137 290.0 15.0
138 26.0 5.0
139 232.0 326.0
140 15.0 326.0
141 127.0 209.0
142 364.0 313.0
143 245.0 348.0
144 403.0 263.0
145 185.0 53.0
146 286.0 232.0
147 344.0 113.0
148 108.0 331.0
149 206.0 65.0
150 376.0 256.0
151 351.0 387.0
152 409.0 108.0
153 130.0 64.0
154 114.0 226.0
155 183.0 369.0
156 212.0 318.0
157 224.0 394.0
158 9.0 107.0
159 414.0 364.0
160 203.0 53.0
161 18.0 192.0
162 232.0 167.0
163 21.0 35.0
164 141.0 378.0
165 9.0 287.0
166 272.0 105.0
167 137.0 209.0
168 238.0 163.0
169 140.0 323.0
170 329.0 81.0
171 247.0 356.0
172 244.0 69.0
173 119.0 63.0
174 29.0 126.0
175 298.0 271.0
176 386.0 211.0
177 5.0 13.0
178 70.0 160.0
179 267.0 10.0
180 348.0 53.0
181 267.0 182.0
182 131.0 357.0
183 150.0 77.0
184 422.0 139.0
185 343.0 90.0
186 291.0 54.0
187 226.0 54.0
188 329.0 271.0
189 42.0 287.0
190 241.0 400.0
191 56.0 304.0
192 362.0 99.0
193 244.0 20.0
194 384.0 268.0
195 255.0 426.0
196 133.0 213.0
197 98.0 305.0
198 236.0 99.0
199 100.0 205.0
200 120.0 236.0
201 336.0 68.0
202 170.0 276.0
203 80.0 401.0
204 283.0 34.0
205 232.0 5.0
206 164.0 364.0
207 26.0 228.0
208 315.0 208.0
209 415.0 122.0
210 110.0 41.0
211 239.0 127.0
212 341.0 86.0
213 410.0 386.0
214 287.0 150.0
215 210.0 135.0
216 425.0 41.0
217 61.0 142.0
218 168.0 224.0
219 196.0 328.0
220 250.0 235.0
221 123.0 287.0
222 395.0 6.0
223 407.0 27.0
224 109.0 150.0
225 336.0 393.0
226 327.0 32.0
227 22.0 2.0
228 284.0 407.0
229 90.0 239.0
230 239.0 107.0
231 82.0 403.0
232 186.0 163.0
233 358.0 341.0
234 421.0 185.0
235 143.0 401.0
236 288.0 120.0
237 43.0 328.0
238 90.0 371.0
239 98.0 24.0
240 166.0 424.0
241 15.0 376.0
242 7.0 218.0
243 157.0 48.0
244 364.0 302.0
245 63.0 16.0
246 162.0 172.0
247 250.0 227.0
248 364.0 400.0
249 332.0 281.0
250 123.0 146.0
251 149.0 363.0
252 335.0 19.0
253 215.0 127.0
254 142.0 317.0
255 427.0 429.0
256 316.0 167.0
257 224.0 311.0
258 422.0 134.0
259 327.0 115.0
260 158.0 359.0
261 256.0 174.0
262 24.0 15.0
263 222.0 217.0
264 49.0 420.0
265 316.0 227.0
266 105.0 37.0
267 49.0 306.0
268 323.0 327.0
269 327.0 63.0
270 329.0 133.0
271 410.0 112.0
272 103.0 12.0
273 422.0 215.0
274 331.0 329.0
275 345.0 135.0
276 212.0 428.0
277 174.0 138.0
278 411.0 304.0
279 6.0 218.0
280 86.0 24.0
281 139.0 48.0
282 153.0 92.0
283 336.0 95.0
284 1.0 273.0
285 387.0 377.0
286 261.0 28.0
287 168.0 71.0
288 59.0 397.0
289 412.0 134.0
290 139.0 127.0
291 300.0 188.0
292 212.0 422.0
293 351.0 280.0
294 260.0 181.0
295 424.0 176.0
296 414.0 99.0
297 7.0 336.0
298 202.0 9.0
299 215.0 211.0
300 109.0 118.0
301 115.0 278.0
302 348.0 179.0
303 271.0 366.0
304 2.0 156.0
305 124.0 32.0
306 149.0 333.0
307 215.0 413.0
308 297.0 374.0
309 416.0 327.0
310 72.0 109.0
311 403.0 53.0
312 308.0 137.0
313 144.0 71.0
314 391.0 264.0
315 42.0 329.0
316 299.0 234.0
317 49.0 258.0
318 170.0 268.0
319 334.0 225.0
320 367.0 123.0
321 280.0 369.0
322 191.0 301.0
323 256.0 63.0
324 411.0 408.0
325 47.0 394.0
326 367.0 424.0
327 191.0 290.0
328 380.0 213.0
329 401.0 105.0
330 354.0 162.0
331 64.0 18.0
332 264.0 117.0
333 206.0 308.0
334 224.0 362.0
335 216.0 415.0
336 70.0 381.0
337 391.0 177.0
338 67.0 166.0
339 340.0 288.0
340 165.0 219.0
341 292.0 258.0
342 295.0 305.0
343 352.0 11.0
344 87.0 281.0
345 368.0 154.0
346 337.0 217.0
347 216.0 184.0
348 255.0 140.0
349 111.0 58.0
350 119.0 230.0
351 32.0 155.0
352 313.0 301.0
353 1.0 247.0
354 124.0 344.0
355 352.0 428.0
356 168.0 124.0
357 300.0 299.0
358 123.0 43.0
359 214.0 351.0
360 377.0 146.0
361 362.0 315.0
362 299.0 398.0
363 60.0 392.0
364 423.0 253.0
365 317.0 137.0
366 71.0 203.0
367 265.0 321.0
368 279.0 243.0
369 425.0 374.0
370 382.0 28.0
371 305.0 358.0
372 424.0 2.0
373 231.0 364.0
374 91.0 270.0
375 258.0 240.0
376 55.0 19.0
377 209.0 162.0
378 226.0 192.0
379 143.0 237.0
380 13.0 144.0
381 149.0 86.0
382 291.0 117.0
383 171.0 11.0
384 324.0 397.0
385 397.0 334.0
386 300.0 182.0
387 208.0 149.0
388 172.0 7.0
389 91.0 420.0
390 363.0 112.0
391 370.0 420.0
392 95.0 7.0
393 38.0 306.0
394 36.0 181.0
395 113.0 325.0
396 109.0 376.0
397 175.0 388.0
398 427.0 386.0
399 108.0 20.0
400 267.0 381.0
401 136.0 224.0
402 158.0 286.0
403 152.0 426.0
404 90.0 44.0
405 191.0 422.0
406 190.0 333.0
407 270.0 57.0
408 46.0 339.0
409 122.0 150.0
410 123.0 6.0
411 138.0 184.0
412 251.0 199.0
413 24.0 39.0
414 135.0 36.0
415 307.0 226.0
416 241.0 99.0
417 425.0 318.0
418 182.0 160.0
419 340.0 169.0
420 169.0 23.0
421 330.0 105.0
422 260.0 112.0
423 177.0 1.0
424 165.0 416.0
425 32.0 352.0
426 185.0 192.0
427 164.0 312.0
428 122.0 202.0
429 385.0 164.0
430 21.0 342.0
EOF





